c turning on binary mode checking
c parsing input formula with 202048 variables and 780980 clauses
c finished parsing, read 2326255 bytes from proof file
c detected empty clause; start verification via backward checking
c 3680 of 780980 clauses in core                            
c 1198 of 94416 lemmas in core using 26972 resolution steps
c 0 RAT lemmas in core; 147 redundant literals in core lemmas
s VERIFIED
c verification time: 1.071 seconds
